c Command line: hgen8 190 50
p cnf 190 294
63 161 55 48 0
62 118 149 24 0
188 23 183 57 0
61 139 50 83 0
4 46 180 114 0
153 64 35 34 0
33 100 176 116 0
144 41 76 72 0
14 69 89 52 0
10 122 13 150 0
85 168 58 174 0
106 141 190 113 0
107 154 119 108 0
45 184 133 42 0
157 124 3 189 0
123 130 56 80 0
177 138 143 125 0
18 73 160 103 0
78 140 86 179 0
92 120 11 43 0
32 9 167 38 0
102 88 79 8 0
152 134 182 17 0
84 31 47 90 0
59 146 110 21 0
112 172 117 121 0
169 148 19 7 0
147 91 115 156 0
28 135 40 75 0
98 26 127 105 0
66 51 44 129 0
65 137 67 16 0
136 186 39 27 0
109 185 1 101 0
145 54 74 128 0
82 131 49 68 0
95 159 99 96 0
170 81 70 29 0
93 175 166 2 0
-1 -2 0
-1 -3 0
-1 -4 0
-2 -3 0
-2 -4 0
-3 -4 0
-7 -8 0
-7 -9 0
-7 -10 0
-8 -9 0
-8 -10 0
-9 -10 0
-11 -13 0
-11 -14 0
-13 -14 0
-16 -17 0
-16 -18 0
-16 -19 0
-17 -18 0
-17 -19 0
-18 -19 0
-21 -23 0
-21 -24 0
-23 -24 0
-26 -27 0
-26 -28 0
-26 -29 0
-27 -28 0
-27 -29 0
-28 -29 0
-31 -32 0
-31 -33 0
-31 -34 0
-31 -35 0
-32 -33 0
-32 -34 0
-32 -35 0
-33 -34 0
-33 -35 0
-34 -35 0
-38 -39 0
-38 -40 0
-39 -40 0
-41 -42 0
-41 -43 0
-41 -44 0
-41 -45 0
-42 -43 0
-42 -44 0
-42 -45 0
-43 -44 0
-43 -45 0
-44 -45 0
-46 -47 0
-46 -48 0
-46 -49 0
-46 -50 0
-47 -48 0
-47 -49 0
-47 -50 0
-48 -49 0
-48 -50 0
-49 -50 0
-51 -52 0
-51 -54 0
-51 -55 0
-52 -54 0
-52 -55 0
-54 -55 0
-56 -57 0
-56 -58 0
-56 -59 0
-57 -58 0
-57 -59 0
-58 -59 0
-61 -62 0
-61 -63 0
-61 -64 0
-61 -65 0
-62 -63 0
-62 -64 0
-62 -65 0
-63 -64 0
-63 -65 0
-64 -65 0
-66 -67 0
-66 -68 0
-66 -69 0
-66 -70 0
-67 -68 0
-67 -69 0
-67 -70 0
-68 -69 0
-68 -70 0
-69 -70 0
-72 -73 0
-72 -74 0
-72 -75 0
-73 -74 0
-73 -75 0
-74 -75 0
-76 -78 0
-76 -79 0
-76 -80 0
-78 -79 0
-78 -80 0
-79 -80 0
-81 -82 0
-81 -83 0
-81 -84 0
-81 -85 0
-82 -83 0
-82 -84 0
-82 -85 0
-83 -84 0
-83 -85 0
-84 -85 0
-86 -88 0
-86 -89 0
-86 -90 0
-88 -89 0
-88 -90 0
-89 -90 0
-91 -92 0
-91 -93 0
-91 -95 0
-92 -93 0
-92 -95 0
-93 -95 0
-96 -98 0
-96 -99 0
-96 -100 0
-98 -99 0
-98 -100 0
-99 -100 0
-101 -102 0
-101 -103 0
-101 -105 0
-102 -103 0
-102 -105 0
-103 -105 0
-106 -107 0
-106 -108 0
-106 -109 0
-106 -110 0
-107 -108 0
-107 -109 0
-107 -110 0
-108 -109 0
-108 -110 0
-109 -110 0
-112 -113 0
-112 -114 0
-112 -115 0
-113 -114 0
-113 -115 0
-114 -115 0
-116 -117 0
-116 -118 0
-116 -119 0
-116 -120 0
-117 -118 0
-117 -119 0
-117 -120 0
-118 -119 0
-118 -120 0
-119 -120 0
-121 -122 0
-121 -123 0
-121 -124 0
-121 -125 0
-122 -123 0
-122 -124 0
-122 -125 0
-123 -124 0
-123 -125 0
-124 -125 0
-127 -128 0
-127 -129 0
-127 -130 0
-128 -129 0
-128 -130 0
-129 -130 0
-131 -133 0
-131 -134 0
-131 -135 0
-133 -134 0
-133 -135 0
-134 -135 0
-136 -137 0
-136 -138 0
-136 -139 0
-136 -140 0
-137 -138 0
-137 -139 0
-137 -140 0
-138 -139 0
-138 -140 0
-139 -140 0
-141 -143 0
-141 -144 0
-141 -145 0
-143 -144 0
-143 -145 0
-144 -145 0
-146 -147 0
-146 -148 0
-146 -149 0
-146 -150 0
-147 -148 0
-147 -149 0
-147 -150 0
-148 -149 0
-148 -150 0
-149 -150 0
-152 -153 0
-152 -154 0
-153 -154 0
-156 -157 0
-156 -159 0
-156 -160 0
-157 -159 0
-157 -160 0
-159 -160 0
-166 -167 0
-166 -168 0
-166 -169 0
-166 -170 0
-167 -168 0
-167 -169 0
-167 -170 0
-168 -169 0
-168 -170 0
-169 -170 0
-172 -174 0
-172 -175 0
-174 -175 0
-176 -177 0
-176 -179 0
-176 -180 0
-177 -179 0
-177 -180 0
-179 -180 0
-182 -183 0
-182 -184 0
-182 -185 0
-183 -184 0
-183 -185 0
-184 -185 0
-186 -188 0
-186 -189 0
-186 -190 0
-188 -189 0
-188 -190 0
-189 -190 0
